3
5
0 938 339 358 262 
938 0 835 986 866 
339 835 0 150 80 
358 986 150 0 146 
262 866 80 146 0 
0 593 869 983 827 
593 0 317 930 316 
869 317 0 857 85 
983 930 857 0 773 
827 316 85 773 0 
0 266 586 433 202 
266 0 776 388 417 
586 776 0 560 384 
433 388 560 0 384 
202 417 384 384 0 
